results/real/sos1/feb_22_387.in
Version identifier: 22.1.0.0 | 2022-03-09 | 1a383f8ce
CPXPARAM_Threads                                 1
CPXPARAM_MIP_Strategy_VariableSelect             3
CPXPARAM_TimeLimit                               599.99998261500002
1 of 1 MIP starts provided solutions.
MIP start 'm1' defined initial solution with objective 117.0000.
Tried aggregator 2 times.
MIP Presolve eliminated 429 rows and 1549 columns.
MIP Presolve added 36 rows and 9 columns.
MIP Presolve modified 33 coefficients.
Aggregator did 9 substitutions.
Reduced MIP has 2320 rows, 3483 columns, and 99536 nonzeros.
Reduced MIP has 3483 binaries, 0 generals, 0 SOSs, and 0 indicators.
Presolve time = 0.15 sec. (199.27 ticks)
Probing time = 0.02 sec. (13.65 ticks)
Tried aggregator 1 time.
Detecting symmetries...
MIP Presolve modified 9 coefficients.
Reduced MIP has 2320 rows, 3483 columns, and 99650 nonzeros.
Reduced MIP has 3483 binaries, 0 generals, 0 SOSs, and 0 indicators.
Presolve time = 0.09 sec. (146.17 ticks)
Probing time = 0.01 sec. (13.65 ticks)
Clique table members: 1545.
MIP emphasis: balance optimality and feasibility.
MIP search method: dynamic search.
Parallel mode: none, using 1 thread.
Root relaxation solution time = 0.06 sec. (73.52 ticks)

        Nodes                                         Cuts/
   Node  Left     Objective  IInf  Best Integer    Best Bound    ItCnt     Gap

*     0+    0                          117.0000    75078.0000              --- 
      0     0      387.0000   114      117.0000      387.0000      773  230.77%
*     0+    0                          387.0000      387.0000             0.00%
      0     0        cutoff            387.0000      387.0000      773    0.00%
Elapsed time = 0.63 sec. (744.80 ticks, tree = 0.01 MB, solutions = 2)

Root node processing (before b&c):
  Real time             =    0.63 sec. (745.00 ticks)
Sequential b&c:
  Real time             =    0.00 sec. (0.00 ticks)
                          ------------
Total (root+branch&cut) =    0.63 sec. (745.00 ticks)
Primal:	387
Dual:	387
Status:	Optimal
Time:	0.65
Sequence:
	0
	4
	9
	6
	4
	9
	0
	9
	6
	9
	5
	0
	9
	9
	0
	9
	6
	9
	9
	0
	6
	9
	9
	0
	6
	9
	0
	9
	6
	0
	9
	9
	0
	9
	9
	0
	9
	9
	9
	0
	9
	9
	0
	9
	9
	9
	0
	9
	9
	0
	9
	9
	0
	9
	9
	9
	9
	0
	9
	1
	9
	9
	4
	9
	0
	4
	9
	9
	0
	9
	9
	0
	9
	9
	9
	0
	9
	9
	6
	0
	4
	4
	0
	9
	6
	9
	0
	9
	9
	0
	6
	9
	4
	0
	9
	9
	0
	9
	4
	0
	6
	4
	1
	4
	0
	4
	6
	0
	5
	4
	0
	4
	4
	0
	4
	4
	0
	4
	4
	0
	4
	6
	0
	1
	4
	0
	6
	4
	9
	5
	2
	5
	4
	0
	4
	6
	0
	9
	4
	4
	0
	1
	4
	4
	0
	4
	4
	0
	5
	9
	0
	6
	4
	0
	4
	4
	0
	4
	9
	6
	0
	1
	4
	0
	5
	9
	9
	5
	0
	6
	4
	0
	4
	1
	4
	0
	4
	4
	0
	4
	6
	0
	5
	4
	0
	5
	4
	0
	1
	4
	6
	0
	4
	4
	0
	9
	6
	0
	9
	9
	0
	6
	9
	4
	9
	0
	9
	9
	1
	0
	9
	5
	0
	9
	1
	0
	1
	4
	1
	0
	6
	4
	9
	9
	9
	0
	9
	6
	9
	0
	9
	9
	0
	5
	9
	5
	0
	9
	5
	0
	5
	9
	5
	0
	5
	9
	0
	5
	9
	5
	0
	6
	9
	5
	0
	9
	5
	0
	5
	9
	5
	9
	5
	0
	5
	9
	0
	9
	6
	0
	9
	5
	0
	4
	4
	9
	4
	4
	0
	4
	4
	0
	4
	4
	0
	4
	4
	0
	4
	4
	0
	4
	4
	0
	9
	4
	0
	9
	1
	0
	9
	9
	9
	0
	9
	6
	0
	4
	9
	0
	6
	9
	0
	3
	9
	0
	6
	9
	0
	9
	5
	0
	5
	9
	9
	6
	0
	5
	9
	0
	9
	6
	0
	9
	4
	0
	9
	6
	9
	0
	9
	9
	9
	0
	9
	9
	5
	0
	4
	4
	9
	5
	0
	4
	4
	0
	4
	4
	0
	4
	4
	0
	5
	9
	5
	4
	0
	6
	4
	0
	4
	9
	4
	0
	4
	4
	0
	5
	4
	0
	5
	9
	5
	0
	5
	4
	0
