results/real/sos1/feb_22_387.out
Version identifier: 22.1.1.0 | 2022-11-28 | 9160aff4d
CPXPARAM_Threads                                 1
CPXPARAM_MIP_Strategy_VariableSelect             3
CPXPARAM_TimeLimit                               599.999991905
1 of 1 MIP starts provided solutions.
MIP start 'm1' defined initial solution with objective 117.0000.
Tried aggregator 1 time.
MIP Presolve eliminated 401 rows and 1548 columns.
MIP Presolve modified 26 coefficients.
Reduced MIP has 1934 rows, 3483 columns, and 96430 nonzeros.
Reduced MIP has 3483 binaries, 0 generals, 0 SOSs, and 0 indicators.
Presolve time = 0.06 sec. (158.82 ticks)
Probing time = 0.01 sec. (13.64 ticks)
Tried aggregator 1 time.
Detecting symmetries...
MIP Presolve modified 7 coefficients.
Reduced MIP has 1934 rows, 3483 columns, and 96533 nonzeros.
Reduced MIP has 3483 binaries, 0 generals, 0 SOSs, and 0 indicators.
Presolve time = 0.05 sec. (141.77 ticks)
Probing time = 0.01 sec. (13.65 ticks)
Clique table members: 1159.
MIP emphasis: balance optimality and feasibility.
MIP search method: dynamic search.
Parallel mode: none, using 1 thread.
Root relaxation solution time = 0.02 sec. (45.48 ticks)

        Nodes                                         Cuts/
   Node  Left     Objective  IInf  Best Integer    Best Bound    ItCnt     Gap

*     0+    0                          117.0000    75078.0000              --- 
      0     0      387.0000    72      117.0000      387.0000      672  230.77%
*     0+    0                          387.0000      387.0000             0.00%
      0     0        cutoff            387.0000      387.0000      672    0.00%
Elapsed time = 0.24 sec. (534.22 ticks, tree = 0.01 MB, solutions = 2)

Root node processing (before b&c):
  Real time             =    0.24 sec. (534.41 ticks)
Sequential b&c:
  Real time             =    0.00 sec. (0.00 ticks)
                          ------------
Total (root+branch&cut) =    0.24 sec. (534.41 ticks)
Primal:	387
Dual:	387
Status:	Optimal
Time:	0.25
Sequence:
	0
	1
	4
	0
	6
	4
	9
	9
	6
	0
	5
	4
	9
	9
	6
	0
	9
	4
	6
	0
	9
	9
	6
	0
	9
	9
	0
	9
	9
	5
	0
	5
	4
	0
	6
	9
	0
	9
	6
	0
	9
	9
	4
	9
	0
	6
	9
	0
	9
	9
	0
	9
	9
	9
	0
	9
	9
	4
	9
	4
	0
	9
	9
	0
	9
	9
	0
	9
	9
	9
	0
	9
	9
	2
	9
	4
	0
	9
	4
	0
	9
	9
	6
	0
	9
	5
	5
	9
	5
	5
	0
	9
	9
	0
	4
	4
	0
	4
	4
	0
	4
	9
	5
	5
	0
	4
	5
	1
	0
	4
	6
	0
	5
	4
	0
	9
	6
	4
	0
	9
	6
	0
	4
	1
	1
	5
	4
	0
	4
	5
	0
	4
	6
	0
	5
	9
	4
	0
	4
	4
	0
	4
	5
	9
	5
	0
	4
	5
	0
	9
	9
	5
	0
	4
	4
	0
	4
	4
	0
	9
	4
	0
	6
	9
	0
	9
	9
	0
	5
	9
	0
	4
	4
	0
	4
	4
	0
	4
	4
	0
	4
	6
	0
	4
	5
	0
	4
	6
	0
	5
	4
	0
	4
	4
	0
	9
	9
	0
	4
	6
	0
	9
	5
	9
	0
	5
	6
	9
	9
	0
	6
	9
	0
	9
	9
	0
	9
	9
	6
	9
	0
	9
	6
	9
	0
	5
	4
	0
	4
	5
	0
	6
	4
	9
	0
	9
	4
	9
	0
	4
	9
	0
	9
	5
	5
	9
	1
	0
	1
	4
	0
	6
	5
	9
	0
	5
	9
	0
	1
	9
	0
	9
	6
	0
	4
	1
	1
	0
	9
	1
	1
	0
	9
	6
	0
	9
	4
	9
	0
	9
	9
	0
	4
	4
	0
	5
	9
	6
	0
	4
	9
	0
	9
	9
	0
	1
	9
	0
	9
	4
	0
	3
	5
	9
	4
	6
	9
	0
	9
	6
	0
	9
	9
	0
	4
	5
	9
	0
	4
	9
	0
	4
	6
	9
	0
	9
	9
	0
	9
	9
	9
	0
	9
	4
	0
	4
	4
	0
	4
	6
	0
	4
	4
	9
	0
	9
	5
	0
	9
	9
	0
	4
	9
	0
	9
	4
	0
	4
	4
	0
	4
	4
	0
	4
	9
	4
	0
	4
	4
	9
	0
	4
	9
	6
	0
	9
	5
	0
	9
	4
	4
	0
	5
	5
	9
	0
	6
